
Gurobi 9.5.2 (mac64[arm]) logging started Fri Apr 28 13:29:17 2023

Set parameter LogFile to value "Java/output/pure_mip_2_machine/scenario_seed_3_nJob_30_machineCount_2/mip_increment_1/log.txt"
Gurobi Optimizer version 9.5.2 build v9.5.2rc0 (mac64[arm])
Thread count: 8 physical cores, 8 logical processors, using up to 8 threads
Optimize a model with 1514 rows, 18860 columns and 212926 nonzeros
Model fingerprint: 0xeb20b6bb
Variable types: 0 continuous, 18860 integer (18860 binary)
Coefficient statistics:
  Matrix range     [1e+00, 1e+02]
  Objective range  [1e+00, 2e+06]
  Bounds range     [1e+00, 1e+00]
  RHS range        [1e+00, 1e+00]
Presolve removed 139 rows and 3634 columns
Presolve time: 0.23s
Presolved: 1375 rows, 15226 columns, 172410 nonzeros
Variable types: 0 continuous, 15226 integer (15222 binary)

Root relaxation: objective 1.402429e+05, 13954 iterations, 1.00 seconds (2.29 work units)

    Nodes    |    Current Node    |     Objective Bounds      |     Work
 Expl Unexpl |  Obj  Depth IntInf | Incumbent    BestBd   Gap | It/Node Time

     0     0 140242.916    0  253          - 140242.916      -     -    1s
     0     0 152586.399    0  359          - 152586.399      -     -    2s
     0     0 153123.249    0  350          - 153123.249      -     -    2s
     0     0 153398.945    0  351          - 153398.945      -     -    2s
     0     0 153414.545    0  359          - 153414.545      -     -    2s
     0     0 153414.934    0  358          - 153414.934      -     -    2s
     0     0 155480.885    0  393          - 155480.885      -     -    3s
     0     0 158936.799    0  413          - 158936.799      -     -    4s
     0     0 159585.714    0  416          - 159585.714      -     -    5s
     0     0 159593.886    0  424          - 159593.886      -     -    5s
     0     0 159595.275    0  422          - 159595.275      -     -    5s
     0     0 162749.632    0  440          - 162749.632      -     -    5s
     0     0 163355.767    0  470          - 163355.767      -     -    6s
H    0     0                    2176495.0000 164056.125  92.5%     -    7s
H    0     0                    1512813.0000 164056.125  89.2%     -    7s
     0     0 164056.125    0  475 1512813.00 164056.125  89.2%     -    7s
     0     0 164063.408    0  480 1512813.00 164063.408  89.2%     -    7s
     0     0 164070.122    0  467 1512813.00 164070.122  89.2%     -    7s
     0     0 166958.301    0  478 1512813.00 166958.301  89.0%     -    8s
H    0     0                    1508477.0000 166958.301  88.9%     -    8s
H    0     0                    1353421.0000 166958.301  87.7%     -    8s
     0     0 167638.626    0  516 1353421.00 167638.626  87.6%     -    9s
     0     0 167766.015    0  511 1353421.00 167766.015  87.6%     -    9s
H    0     0                    670779.00000 168481.197  74.9%     -   10s
     0     0 168481.197    0  515 670779.000 168481.197  74.9%     -   10s
     0     0 168503.793    0  525 670779.000 168503.793  74.9%     -   10s
     0     0 168509.936    0  519 670779.000 168509.936  74.9%     -   11s
H    0     0                    527884.00000 170823.348  67.6%     -   12s
     0     0 170823.348    0  517 527884.000 170823.348  67.6%     -   12s
H    0     0                    527864.00000 170823.348  67.6%     -   12s
H    0     0                    523528.00000 170823.348  67.4%     -   12s
H    0     0                    454890.00000 170823.348  62.4%     -   12s
     0     0 171927.375    0  497 454890.000 171927.375  62.2%     -   13s
     0     0 172083.168    0  515 454890.000 172083.168  62.2%     -   13s
     0     0 172128.119    0  515 454890.000 172128.119  62.2%     -   13s
     0     0 172129.107    0  516 454890.000 172129.107  62.2%     -   13s
     0     0 178388.943    0  534 454890.000 178388.943  60.8%     -   16s
H    0     0                    454863.00000 178388.943  60.8%     -   16s
H    0     0                    454660.00000 178388.943  60.8%     -   16s
     0     0 178912.392    0  531 454660.000 178912.392  60.6%     -   17s
     0     0 179247.178    0  524 454660.000 179247.178  60.6%     -   17s
     0     0 179268.644    0  535 454660.000 179268.644  60.6%     -   17s
     0     0 179276.902    0  531 454660.000 179276.902  60.6%     -   18s
     0     0 183419.868    0  543 454660.000 183419.868  59.7%     -   20s
H    0     0                    369944.00000 183419.868  50.4%     -   20s
     0     0 184208.459    0  528 369944.000 184208.459  50.2%     -   21s
     0     0 184370.244    0  528 369944.000 184370.244  50.2%     -   21s
     0     0 184370.994    0  542 369944.000 184370.994  50.2%     -   21s
H    0     0                    296318.00000 186528.657  37.1%     -   23s
     0     0 186528.657    0  558 296318.000 186528.657  37.1%     -   24s
H    0     0                    294214.00000 186528.657  36.6%     -   24s
H    0     0                    294202.00000 186528.657  36.6%     -   24s
     0     0 186977.599    0  561 294202.000 186977.599  36.4%     -   25s
     0     0 187357.330    0  589 294202.000 187357.330  36.3%     -   27s
     0     0 187405.922    0  596 294202.000 187405.922  36.3%     -   27s
     0     0 187405.979    0  590 294202.000 187405.979  36.3%     -   27s
     0     0 189421.931    0  546 294202.000 189421.931  35.6%     -   29s
H    0     0                    260825.99560 189421.931  27.4%     -   29s
     0     0 189711.037    0  556 260825.996 189711.037  27.3%     -   30s
     0     0 189883.697    0  582 260825.996 189883.697  27.2%     -   31s
     0     0 189905.107    0  594 260825.996 189905.107  27.2%     -   31s
H    0     0                    242414.00000 190941.942  21.2%     -   34s
     0     0 190942.234    0  579 242414.000 190942.234  21.2%     -   34s
H    0     0                    238451.00000 191476.199  19.7%     -   36s
     0     0 191476.199    0  572 238451.000 191476.199  19.7%     -   36s
     0     0 191567.625    0  591 238451.000 191567.625  19.7%     -   36s
     0     0 191595.321    0  595 238451.000 191595.321  19.7%     -   37s
H    0     0                    237642.00000 194860.768  18.0%     -   39s
     0     0 194860.768    0  603 237642.000 194860.768  18.0%     -   39s
H    0     0                    237451.00000 194860.768  17.9%     -   39s
H    0     0                    237274.00000 195173.656  17.7%     -   40s
     0     0 195173.656    0  603 237274.000 195173.656  17.7%     -   40s
     0     0 195241.035    0  615 237274.000 195241.035  17.7%     -   40s
     0     0 195247.378    0  610 237274.000 195247.378  17.7%     -   40s
     0     0 196955.791    0  572 237274.000 196955.791  17.0%     -   42s
     0     0 196955.791    0  264 237274.000 196955.791  17.0%     -   43s
     0     0 196955.791    0  405 237274.000 196955.791  17.0%     -   44s
     0     0 196955.791    0  461 237274.000 196955.791  17.0%     -   45s
     0     0 196955.791    0  488 237274.000 196955.791  17.0%     -   46s
     0     0 196955.791    0  542 237274.000 196955.791  17.0%     -   46s
     0     0 196955.791    0  499 237274.000 196955.791  17.0%     -   47s
     0     0 197370.698    0  526 237274.000 197370.698  16.8%     -   47s
     0     0 197407.528    0  550 237274.000 197407.528  16.8%     -   47s
     0     0 197410.248    0  554 237274.000 197410.248  16.8%     -   47s
     0     0 200298.855    0  546 237274.000 200298.855  15.6%     -   48s
     0     0 200972.654    0  559 237274.000 200972.654  15.3%     -   49s
     0     0 201029.892    0  552 237274.000 201029.892  15.3%     -   49s
     0     0 201030.077    0  564 237274.000 201030.077  15.3%     -   49s
     0     0 203559.225    0  544 237274.000 203559.225  14.2%     -   51s
     0     0 205064.499    0  573 237274.000 205064.499  13.6%     -   51s
     0     0 205348.468    0  610 237274.000 205348.468  13.5%     -   52s
     0     0 205704.613    0  583 237274.000 205704.613  13.3%     -   52s
     0     0 205757.747    0  594 237274.000 205757.747  13.3%     -   52s
     0     0 205763.840    0  588 237274.000 205763.840  13.3%     -   52s
     0     0 206903.612    0  560 237274.000 206903.612  12.8%     -   53s
     0     0 207275.297    0  534 237274.000 207275.297  12.6%     -   53s
     0     0 207718.662    0  570 237274.000 207718.662  12.5%     -   54s
     0     0 207755.889    0  571 237274.000 207755.889  12.4%     -   54s
     0     0 208068.623    0  555 237274.000 208068.623  12.3%     -   54s
H    0     0                    228538.00000 208068.623  8.96%     -   55s
     0     0 208133.295    0  597 228538.000 208133.295  8.93%     -   56s
     0     0 208133.943    0  615 228538.000 208133.943  8.93%     -   56s
     0     0 210161.525    0  595 228538.000 210161.525  8.04%     -   56s
     0     0 210223.576    0  601 228538.000 210223.576  8.01%     -   57s
     0     0 210245.204    0  592 228538.000 210245.204  8.00%     -   57s
     0     0 211918.432    0  590 228538.000 211918.432  7.27%     -   58s
     0     0 211970.376    0  595 228538.000 211970.376  7.25%     -   58s
     0     0 212004.841    0  621 228538.000 212004.841  7.23%     -   58s
     0     0 212732.544    0  557 228538.000 212732.544  6.92%     -   59s
     0     0 212782.411    0  618 228538.000 212782.411  6.89%     -   60s
     0     0 213131.046    0  643 228538.000 213131.046  6.74%     -   60s
     0     0 213131.046    0  594 228538.000 213131.046  6.74%     -   61s
     0     0 213133.881    0  252 228538.000 213133.881  6.74%     -   62s
     0     0 213133.881    0  415 228538.000 213133.881  6.74%     -   64s
     0     0 213133.881    0  464 228538.000 213133.881  6.74%     -   65s
     0     0 213133.881    0  523 228538.000 213133.881  6.74%     -   65s
     0     0 213133.881    0  504 228538.000 213133.881  6.74%     -   66s
     0     0 213133.881    0  526 228538.000 213133.881  6.74%     -   67s
     0     0 213232.991    0  525 228538.000 213232.991  6.70%     -   67s
     0     0 213329.467    0  604 228538.000 213329.467  6.65%     -   67s
     0     0 213356.254    0  590 228538.000 213356.254  6.64%     -   68s
     0     0 213357.121    0  596 228538.000 213357.121  6.64%     -   68s
     0     0 213486.732    0  565 228538.000 213486.732  6.59%     -   68s
     0     0 213519.798    0  588 228538.000 213519.798  6.57%     -   68s
     0     0 213670.422    0  581 228538.000 213670.422  6.51%     -   69s
     0     0 213670.422    0  562 228538.000 213670.422  6.51%     -   70s
     0     2 213685.257    0  542 228538.000 213685.257  6.50%     -   71s
    15    24 222126.982    4  457 228538.000 214205.803  6.27%  4620   75s
H   34    40                    226394.00000 214918.800  5.07%  5597   77s
H   52    47                    219427.00000 215175.075  1.94%  4848   79s
    58    38     cutoff    6      219427.000 215175.107  1.94%  4532   80s
H   75    28                    219422.00000 215175.107  1.94%  3538   81s
H  119    32                    219420.00000 216272.733  1.43%  2731   84s
H  121    32                    219263.00000 216272.733  1.36%  2696   84s
   136     9 218778.402    8  436 219263.000 216272.733  1.36%  2540   85s
H  210    34                    219079.00000 217361.669  0.78%  1962   87s

Cutting planes:
  Gomory: 1
  Cover: 24
  Clique: 79
  MIR: 182
  StrongCG: 84
  GUB cover: 153
  Zero half: 13
  RLT: 15
  Relax-and-lift: 1

Explored 247 nodes (841333 simplex iterations) in 88.00 seconds (219.72 work units)
Thread count was 8 (of 8 available processors)

Solution count 10: 219079 219263 219420 ... 237642

Optimal solution found (tolerance 1.00e-04)
Best objective 2.190790000000e+05, best bound 2.190709000000e+05, gap 0.0037%
